p cnf 144 720
1 -73 -55 0
-1 73 -55 0
1 73 -56 0
-1 -73 -56 0
19 -73 -61 0
-19 73 -61 0
19 73 -62 0
-19 -73 -62 0
37 -73 -67 0
-37 73 -67 0
37 73 -68 0
-37 -73 -68 0
2 -74 -55 0
-2 74 -55 0
2 74 -56 0
-2 -74 -56 0
20 -74 -61 0
-20 74 -61 0
20 74 -62 0
-20 -74 -62 0
38 -74 -67 0
-38 74 -67 0
38 74 -68 0
-38 -74 -68 0
3 -75 -55 0
-3 75 -55 0
3 75 -56 0
-3 -75 -56 0
21 -75 -61 0
-21 75 -61 0
21 75 -62 0
-21 -75 -62 0
39 -75 -67 0
-39 75 -67 0
39 75 -68 0
-39 -75 -68 0
4 -76 -55 0
-4 76 -55 0
4 76 -56 0
-4 -76 -56 0
22 -76 -61 0
-22 76 -61 0
22 76 -62 0
-22 -76 -62 0
40 -76 -67 0
-40 76 -67 0
40 76 -68 0
-40 -76 -68 0
5 -55 0
5 -56 0
55 -55 0
56 -56 0
23 -61 0
23 -62 0
61 -61 0
62 -62 0
41 -67 0
41 -68 0
67 -67 0
68 -68 0
6 -55 0
6 -56 0
55 -55 0
56 -56 0
24 -61 0
24 -62 0
61 -61 0
62 -62 0
42 -67 0
42 -68 0
67 -67 0
68 -68 0
7 -55 0
7 -56 0
55 -55 0
56 -56 0
25 -61 0
25 -62 0
61 -61 0
62 -62 0
43 -67 0
43 -68 0
67 -67 0
68 -68 0
8 -55 0
8 -56 0
55 -55 0
56 -56 0
26 -61 0
26 -62 0
61 -61 0
62 -62 0
44 -67 0
44 -68 0
67 -67 0
68 -68 0
9 -55 0
9 -56 0
55 -55 0
56 -56 0
27 -61 0
27 -62 0
61 -61 0
62 -62 0
45 -67 0
45 -68 0
67 -67 0
68 -68 0
10 -77 -55 0
-10 77 -55 0
10 77 -56 0
-10 -77 -56 0
28 -77 -61 0
-28 77 -61 0
28 77 -62 0
-28 -77 -62 0
46 -77 -67 0
-46 77 -67 0
46 77 -68 0
-46 -77 -68 0
11 -55 0
11 -56 0
55 -55 0
56 -56 0
29 -61 0
29 -62 0
61 -61 0
62 -62 0
47 -67 0
47 -68 0
67 -67 0
68 -68 0
12 -55 0
12 -56 0
55 -55 0
56 -56 0
30 -61 0
30 -62 0
61 -61 0
62 -62 0
48 -67 0
48 -68 0
67 -67 0
68 -68 0
13 -78 -55 0
-13 78 -55 0
13 78 -56 0
-13 -78 -56 0
31 -78 -61 0
-31 78 -61 0
31 78 -62 0
-31 -78 -62 0
49 -78 -67 0
-49 78 -67 0
49 78 -68 0
-49 -78 -68 0
14 -79 -55 0
-14 79 -55 0
14 79 -56 0
-14 -79 -56 0
32 -79 -61 0
-32 79 -61 0
32 79 -62 0
-32 -79 -62 0
50 -79 -67 0
-50 79 -67 0
50 79 -68 0
-50 -79 -68 0
15 -80 -55 0
-15 80 -55 0
15 80 -56 0
-15 -80 -56 0
33 -80 -61 0
-33 80 -61 0
33 80 -62 0
-33 -80 -62 0
51 -80 -67 0
-51 80 -67 0
51 80 -68 0
-51 -80 -68 0
16 -55 0
16 -56 0
55 -55 0
56 -56 0
34 -61 0
34 -62 0
61 -61 0
62 -62 0
52 -67 0
52 -68 0
67 -67 0
68 -68 0
17 -81 -55 0
-17 81 -55 0
17 81 -56 0
-17 -81 -56 0
35 -81 -61 0
-35 81 -61 0
35 81 -62 0
-35 -81 -62 0
53 -81 -67 0
-53 81 -67 0
53 81 -68 0
-53 -81 -68 0
18 -55 0
18 -56 0
55 -55 0
56 -56 0
36 -61 0
36 -62 0
61 -61 0
62 -62 0
54 -67 0
54 -68 0
67 -67 0
68 -68 0
-127 55 0
127 -55 0
-128 56 0
127 -56 0
-127 -55 0
-128 -56 0
-133 55 127 0
133 -55 0
133 -127 0
-134 56 128 0
134 -56 0
134 -128 0
-133 -61 0
-134 -62 0
-139 61 133 0
139 -61 0
139 -133 0
-140 62 134 0
140 -62 0
140 -134 0
-139 -67 0
-140 -68 0
139 0
140 0
1 -57 0
1 -58 0
57 -57 0
58 -58 0
19 -63 0
19 -64 0
63 -63 0
64 -64 0
37 -69 0
37 -70 0
69 -69 0
70 -70 0
2 -57 0
2 -58 0
57 -57 0
58 -58 0
20 -63 0
20 -64 0
63 -63 0
64 -64 0
38 -69 0
38 -70 0
69 -69 0
70 -70 0
3 -57 0
3 -58 0
57 -57 0
58 -58 0
21 -63 0
21 -64 0
63 -63 0
64 -64 0
39 -69 0
39 -70 0
69 -69 0
70 -70 0
-4 -57 0
-4 -58 0
57 -57 0
58 -58 0
-22 -63 0
-22 -64 0
63 -63 0
64 -64 0
-40 -69 0
-40 -70 0
69 -69 0
70 -70 0
5 -57 0
5 -58 0
57 -57 0
58 -58 0
23 -63 0
23 -64 0
63 -63 0
64 -64 0
41 -69 0
41 -70 0
69 -69 0
70 -70 0
6 -57 0
6 -58 0
57 -57 0
58 -58 0
24 -63 0
24 -64 0
63 -63 0
64 -64 0
42 -69 0
42 -70 0
69 -69 0
70 -70 0
7 -57 0
7 -58 0
57 -57 0
58 -58 0
25 -63 0
25 -64 0
63 -63 0
64 -64 0
43 -69 0
43 -70 0
69 -69 0
70 -70 0
8 -57 0
8 -58 0
57 -57 0
58 -58 0
26 -63 0
26 -64 0
63 -63 0
64 -64 0
44 -69 0
44 -70 0
69 -69 0
70 -70 0
9 -57 0
9 -58 0
57 -57 0
58 -58 0
27 -63 0
27 -64 0
63 -63 0
64 -64 0
45 -69 0
45 -70 0
69 -69 0
70 -70 0
10 -82 -57 0
-10 82 -57 0
10 82 -58 0
-10 -82 -58 0
28 -82 -63 0
-28 82 -63 0
28 82 -64 0
-28 -82 -64 0
46 -82 -69 0
-46 82 -69 0
46 82 -70 0
-46 -82 -70 0
11 -57 0
11 -58 0
57 -57 0
58 -58 0
29 -63 0
29 -64 0
63 -63 0
64 -64 0
47 -69 0
47 -70 0
69 -69 0
70 -70 0
12 -57 0
12 -58 0
57 -57 0
58 -58 0
30 -63 0
30 -64 0
63 -63 0
64 -64 0
48 -69 0
48 -70 0
69 -69 0
70 -70 0
13 -57 0
13 -58 0
57 -57 0
58 -58 0
31 -63 0
31 -64 0
63 -63 0
64 -64 0
49 -69 0
49 -70 0
69 -69 0
70 -70 0
14 -83 -57 0
-14 83 -57 0
14 83 -58 0
-14 -83 -58 0
32 -83 -63 0
-32 83 -63 0
32 83 -64 0
-32 -83 -64 0
50 -83 -69 0
-50 83 -69 0
50 83 -70 0
-50 -83 -70 0
15 -84 -57 0
-15 84 -57 0
15 84 -58 0
-15 -84 -58 0
33 -84 -63 0
-33 84 -63 0
33 84 -64 0
-33 -84 -64 0
51 -84 -69 0
-51 84 -69 0
51 84 -70 0
-51 -84 -70 0
16 -57 0
16 -58 0
57 -57 0
58 -58 0
34 -63 0
34 -64 0
63 -63 0
64 -64 0
52 -69 0
52 -70 0
69 -69 0
70 -70 0
17 -57 0
17 -58 0
57 -57 0
58 -58 0
35 -63 0
35 -64 0
63 -63 0
64 -64 0
53 -69 0
53 -70 0
69 -69 0
70 -70 0
18 -57 0
18 -58 0
57 -57 0
58 -58 0
36 -63 0
36 -64 0
63 -63 0
64 -64 0
54 -69 0
54 -70 0
69 -69 0
70 -70 0
-129 57 0
129 -57 0
-130 58 0
129 -58 0
-129 -57 0
-130 -58 0
-135 57 129 0
135 -57 0
135 -129 0
-136 58 130 0
136 -58 0
136 -130 0
-135 -63 0
-136 -64 0
-141 63 135 0
141 -63 0
141 -135 0
-142 64 136 0
142 -64 0
142 -136 0
-141 -69 0
-142 -70 0
141 0
142 0
1 -85 -59 0
-1 85 -59 0
1 85 -60 0
-1 -85 -60 0
19 -85 -65 0
-19 85 -65 0
19 85 -66 0
-19 -85 -66 0
37 -85 -71 0
-37 85 -71 0
37 85 -72 0
-37 -85 -72 0
2 -86 -59 0
-2 86 -59 0
2 86 -60 0
-2 -86 -60 0
20 -86 -65 0
-20 86 -65 0
20 86 -66 0
-20 -86 -66 0
38 -86 -71 0
-38 86 -71 0
38 86 -72 0
-38 -86 -72 0
3 -87 -59 0
-3 87 -59 0
3 87 -60 0
-3 -87 -60 0
21 -87 -65 0
-21 87 -65 0
21 87 -66 0
-21 -87 -66 0
39 -87 -71 0
-39 87 -71 0
39 87 -72 0
-39 -87 -72 0
4 -88 -59 0
-4 88 -59 0
4 88 -60 0
-4 -88 -60 0
22 -88 -65 0
-22 88 -65 0
22 88 -66 0
-22 -88 -66 0
40 -88 -71 0
-40 88 -71 0
40 88 -72 0
-40 -88 -72 0
5 -59 0
5 -60 0
59 -59 0
60 -60 0
23 -65 0
23 -66 0
65 -65 0
66 -66 0
41 -71 0
41 -72 0
71 -71 0
72 -72 0
6 -89 -59 0
-6 89 -59 0
6 89 -60 0
-6 -89 -60 0
24 -89 -65 0
-24 89 -65 0
24 89 -66 0
-24 -89 -66 0
42 -89 -71 0
-42 89 -71 0
42 89 -72 0
-42 -89 -72 0
7 -59 0
7 -60 0
59 -59 0
60 -60 0
25 -65 0
25 -66 0
65 -65 0
66 -66 0
43 -71 0
43 -72 0
71 -71 0
72 -72 0
8 -90 -59 0
-8 90 -59 0
8 90 -60 0
-8 -90 -60 0
26 -90 -65 0
-26 90 -65 0
26 90 -66 0
-26 -90 -66 0
44 -90 -71 0
-44 90 -71 0
44 90 -72 0
-44 -90 -72 0
9 -91 -59 0
-9 91 -59 0
9 91 -60 0
-9 -91 -60 0
27 -91 -65 0
-27 91 -65 0
27 91 -66 0
-27 -91 -66 0
45 -91 -71 0
-45 91 -71 0
45 91 -72 0
-45 -91 -72 0
10 -59 0
10 -60 0
59 -59 0
60 -60 0
28 -65 0
28 -66 0
65 -65 0
66 -66 0
46 -71 0
46 -72 0
71 -71 0
72 -72 0
11 -92 -59 0
-11 92 -59 0
11 92 -60 0
-11 -92 -60 0
29 -92 -65 0
-29 92 -65 0
29 92 -66 0
-29 -92 -66 0
47 -92 -71 0
-47 92 -71 0
47 92 -72 0
-47 -92 -72 0
12 -93 -59 0
-12 93 -59 0
12 93 -60 0
-12 -93 -60 0
30 -93 -65 0
-30 93 -65 0
30 93 -66 0
-30 -93 -66 0
48 -93 -71 0
-48 93 -71 0
48 93 -72 0
-48 -93 -72 0
13 -94 -59 0
-13 94 -59 0
13 94 -60 0
-13 -94 -60 0
31 -94 -65 0
-31 94 -65 0
31 94 -66 0
-31 -94 -66 0
49 -94 -71 0
-49 94 -71 0
49 94 -72 0
-49 -94 -72 0
14 -95 -59 0
-14 95 -59 0
14 95 -60 0
-14 -95 -60 0
32 -95 -65 0
-32 95 -65 0
32 95 -66 0
-32 -95 -66 0
50 -95 -71 0
-50 95 -71 0
50 95 -72 0
-50 -95 -72 0
15 -59 0
15 -60 0
59 -59 0
60 -60 0
33 -65 0
33 -66 0
65 -65 0
66 -66 0
51 -71 0
51 -72 0
71 -71 0
72 -72 0
16 -59 0
16 -60 0
59 -59 0
60 -60 0
34 -65 0
34 -66 0
65 -65 0
66 -66 0
52 -71 0
52 -72 0
71 -71 0
72 -72 0
17 -96 -59 0
-17 96 -59 0
17 96 -60 0
-17 -96 -60 0
35 -96 -65 0
-35 96 -65 0
35 96 -66 0
-35 -96 -66 0
53 -96 -71 0
-53 96 -71 0
53 96 -72 0
-53 -96 -72 0
18 -97 -59 0
-18 97 -59 0
18 97 -60 0
-18 -97 -60 0
36 -97 -65 0
-36 97 -65 0
36 97 -66 0
-36 -97 -66 0
54 -97 -71 0
-54 97 -71 0
54 97 -72 0
-54 -97 -72 0
-131 59 0
131 -59 0
-132 60 0
131 -60 0
-131 -59 0
-132 -60 0
-137 59 131 0
137 -59 0
137 -131 0
-138 60 132 0
138 -60 0
138 -132 0
-137 -65 0
-138 -66 0
-143 65 137 0
143 -65 0
143 -137 0
-144 66 138 0
144 -66 0
144 -138 0
-143 -71 0
-144 -72 0
143 0
144 0
